words_easy_train/words_580_SAT.qaiger
aag 52 16 0 1 36
16
32
26
22
24
6
12
28
2
18
4
10
30
8
20
14
105
34 25 19
36 34 27
38 29 23
40 38 21
42 40 36
44 42 31
46 43 30
48 47 45
50 49 10
52 48 11
54 53 51
56 28 9
58 29 8
60 59 57
62 23 2
64 22 3
66 65 63
68 21 18
70 68 66
72 25 4
74 24 5
76 75 73
78 27 6
80 26 7
82 81 79
84 82 76
86 84 70
88 86 60
90 33 13
92 32 12
94 93 91
96 94 45
98 95 44
100 99 97
102 100 88
104 102 55
i0 1 x2[7]
i1 2 y1[7]
i2 2 y1[4]
i3 2 y1[2]
i4 2 y1[3]
i5 1 x2[2]
i6 1 x2[5]
i7 2 y1[5]
i8 1 x2[0]
i9 2 y1[0]
i10 1 x2[1]
i11 1 x2[4]
i12 2 y1[6]
i13 1 x2[3]
i14 2 y1[1]
i15 1 x2[6]
o0 bool[0]
c
simplified
  !=
    << 2
      1 x2
    subtract
      2 y1
      1
