words_easy_train/words_580_SAT.qaiger.qdimacs
p cnf 52 109
a 1 2 3 4 5 6 7 8 0
e 9 10 11 12 13 14 15 16 17 18 19 20 21 22 23 24 25 26 27 28 29 30 31 32 33 34 35 36 37 38 39 40 41 42 43 44 45 46 47 48 49 50 51 52 0
12 9 17 0
-12 -17 0
-9 -17 0
-17 13 18 0
17 -18 0
-13 -18 0
14 11 19 0
-14 -19 0
-11 -19 0
-19 10 20 0
19 -20 0
-10 -20 0
-20 -18 21 0
20 -21 0
18 -21 0
-21 15 22 0
21 -22 0
-15 -22 0
21 -15 23 0
-21 -23 0
15 -23 0
23 22 24 0
-23 -24 0
-22 -24 0
24 -5 25 0
-24 -25 0
5 -25 0
-24 5 26 0
24 -26 0
-5 -26 0
26 25 27 0
-26 -27 0
-25 -27 0
-14 4 28 0
14 -28 0
-4 -28 0
14 -4 29 0
-14 -29 0
4 -29 0
29 28 30 0
-29 -30 0
-28 -30 0
11 -1 31 0
-11 -31 0
1 -31 0
-11 1 32 0
11 -32 0
-1 -32 0
32 31 33 0
-32 -33 0
-31 -33 0
10 -9 34 0
-10 -34 0
9 -34 0
-34 -33 35 0
34 -35 0
33 -35 0
12 -2 36 0
-12 -36 0
2 -36 0
-12 2 37 0
12 -37 0
-2 -37 0
37 36 38 0
-37 -38 0
-36 -38 0
13 -3 39 0
-13 -39 0
3 -39 0
-13 3 40 0
13 -40 0
-3 -40 0
40 39 41 0
-40 -41 0
-39 -41 0
-41 -38 42 0
41 -42 0
38 -42 0
-42 -35 43 0
42 -43 0
35 -43 0
-43 -30 44 0
43 -44 0
30 -44 0
16 6 45 0
-16 -45 0
-6 -45 0
-16 -6 46 0
16 -46 0
6 -46 0
46 45 47 0
-46 -47 0
-45 -47 0
-47 22 48 0
47 -48 0
-22 -48 0
47 -22 49 0
-47 -49 0
22 -49 0
49 48 50 0
-49 -50 0
-48 -50 0
-50 -44 51 0
50 -51 0
44 -51 0
-51 27 52 0
51 -52 0
-27 -52 0
-52 0
